NAME          WP12-20
ROWS
 N  obj
 G  row1
 G  row2
 L  row3
 L  row4
 L  row5
COLUMNS
    x1        obj       -6748          row1      260
    x1        row2      584            row3      4.82
    x2        obj       -1184          row1      960
    x2        row2      24             row3      0.32
    x3        obj       -420           row1      70.25
    x3        row2      55.2           row3      0.21
    x3        row4      220            row5      -27
    x4        obj       -70            row1      -0.6
    x4        row2      5.8            row3      0.07
    x4        row4      -26            row5      34
QSECTION      obj
    x1        x1        12984
    x2        x2        2400
    x3        x3        440
    x3        x4        -53
    x4        x4        68
RHS
    rhs1      row1      782
    rhs1      row2      35
    rhs1      row3      1.939
    rhs1      row4      420
    rhs1      row5      70
BOUNDS
 UP bou1      x1        1.039
 UP bou1      x2        0.987
ENDATA